(set-info :source |printed by MathSAT|)
(declare-fun ast () Bool)
(declare-fun call__main_.nB0 () Int)
(declare-fun nB0 () Int)
(declare-fun call__main_.call_controleur2.flby2 () Bool)
(declare-fun call__main_.call_hypothese2.c () Int)
(declare-fun nB1 () Int)
(declare-fun call__main_.flby3 () Int)
(declare-fun call__main_.call_controleur.flby2 () Bool)
(declare-fun call__main_.call_controleur2.diff () Int)
(declare-fun call__main_.call_controleur2.avance () Bool)
(declare-fun call__main_.call_controleur.retard () Bool)
(declare-fun call__main_.avance1 () Bool)
(declare-fun call__main_.retard1 () Bool)
(declare-fun call__main_.diff0 () Int)
(declare-fun call_Sofar.Sofar () Bool)
(declare-fun call__main_._H0_ () Bool)
(declare-fun call__main_.call_hypothese2.flby () Bool)
(declare-fun call__main_.call_controleur.diff () Int)
(declare-fun call__main_.call_controleur.flby () Bool)
(declare-fun call__main_.call_controleur2.flby () Bool)
(declare-fun call__main_.call_hypothese.c () Int)
(declare-fun call__main_.avance0 () Bool)
(declare-fun call__main_.nB1 () Int)
(declare-fun call__main_.call_hypothese.flby2 () Int)
(declare-fun call__main_._H1_ () Bool)
(declare-fun call__main_.call_hypothese2.flby2 () Int)
(declare-fun call__main_.call_hypothese2.ok () Bool)
(declare-fun nS () Int)
(declare-fun call_Sofar.flby () Bool)
(declare-fun call__main_.diff1 () Int)
(declare-fun avance0 () Bool)
(declare-fun flby () Bool)
(declare-fun call__main_.call_controleur2.retard () Bool)
(declare-fun call__main_.call_hypothese.ok () Bool)
(declare-fun call__main_.ast () Bool)
(declare-fun retard1 () Bool)
(declare-fun call__main_.call_hypothese.flby () Bool)
(declare-fun call__main_.call_controleur.avance () Bool)
(declare-fun _OK_ () Bool)
(declare-fun call__main_.flby () Int)
(declare-fun call__main_.flby2 () Int)
(declare-fun diff1 () Int)
(declare-fun call__main_.retard0 () Bool)
(declare-fun avance1 () Bool)
(declare-fun call__main_.nS () Int)
(declare-fun diff0 () Int)
(declare-fun retard0 () Bool)
(define-fun .def_617 () Bool (= ast call_Sofar.flby))
(define-fun .def_615 () Bool (not call__main_.call_controleur2.flby2))
(define-fun .def_613 () Bool (not call__main_.call_controleur2.flby))
(define-fun .def_611 () Bool (not call__main_.call_controleur.flby2))
(define-fun .def_609 () Bool (not call__main_.call_controleur.flby))
(define-fun .def_607 () Bool (= call__main_.call_hypothese2.flby2 0))
(define-fun .def_604 () Bool (= call__main_.call_hypothese.flby2 0))
(define-fun .def_601 () Bool (= call__main_.flby3 0))
(define-fun .def_599 () Bool (= call__main_.flby2 0))
(define-fun .def_597 () Bool (= call__main_.flby 0))
(define-fun .def_598 () Bool (and flby .def_597))
(define-fun .def_600 () Bool (and .def_598 .def_599))
(define-fun .def_602 () Bool (and .def_600 .def_601))
(define-fun .def_603 () Bool (and call__main_.call_hypothese.flby .def_602))
(define-fun .def_605 () Bool (and .def_603 .def_604))
(define-fun .def_606 () Bool (and call__main_.call_hypothese2.flby .def_605))
(define-fun .def_608 () Bool (and .def_606 .def_607))
(define-fun .def_610 () Bool (and .def_608 .def_609))
(define-fun .def_612 () Bool (and .def_610 .def_611))
(define-fun .def_614 () Bool (and .def_612 .def_613))
(define-fun .def_616 () Bool (and .def_614 .def_615))
(define-fun .def_618 () Bool (and .def_616 .def_617))
(define-fun .def_595 () Bool (= call_Sofar.Sofar call_Sofar.flby))
(define-fun .def_591 () Bool (= call__main_.call_controleur2.retard call__main_.call_controleur2.flby2))
(define-fun .def_588 () Bool (= call__main_.call_controleur2.avance call__main_.call_controleur2.flby))
(define-fun .def_582 () Int (* (- 1) call__main_.call_controleur2.diff))
(define-fun .def_568 () Int (* (- 1) call__main_.nS))
(define-fun .def_583 () Int (+ .def_568 .def_582))
(define-fun .def_584 () Int (+ call__main_.nB1 .def_583))
(define-fun .def_585 () Bool (= .def_584 0))
(define-fun .def_577 () Bool (= call__main_.call_controleur.retard call__main_.call_controleur.flby2))
(define-fun .def_574 () Bool (= call__main_.call_controleur.avance call__main_.call_controleur.flby))
(define-fun .def_567 () Int (* (- 1) call__main_.call_controleur.diff))
(define-fun .def_569 () Int (+ .def_568 .def_567))
(define-fun .def_570 () Int (+ call__main_.nB0 .def_569))
(define-fun .def_571 () Bool (= .def_570 0))
(define-fun .def_562 () Bool (= call__main_.call_hypothese2.c call__main_.call_hypothese2.flby2))
(define-fun .def_558 () Bool (= call__main_.call_hypothese2.ok call__main_.call_hypothese2.flby))
(define-fun .def_555 () Bool (= call__main_.call_hypothese.c call__main_.call_hypothese.flby2))
(define-fun .def_551 () Bool (= call__main_.call_hypothese.ok call__main_.call_hypothese.flby))
(define-fun .def_548 () Bool (= call__main_._H1_ call__main_.call_hypothese2.ok))
(define-fun .def_545 () Bool (= call__main_._H0_ call__main_.call_hypothese.ok))
(define-fun .def_542 () Bool (= call__main_.retard1 call__main_.call_controleur2.retard))
(define-fun .def_539 () Bool (= call__main_.retard0 call__main_.call_controleur.retard))
(define-fun .def_536 () Bool (= call__main_.avance1 call__main_.call_controleur2.avance))
(define-fun .def_533 () Bool (= call__main_.avance0 call__main_.call_controleur.avance))
(define-fun .def_530 () Bool (= call__main_.diff1 call__main_.call_controleur2.diff))
(define-fun .def_527 () Bool (= call__main_.diff0 call__main_.call_controleur.diff))
(define-fun .def_524 () Bool (= call__main_.nS call__main_.flby3))
(define-fun .def_521 () Bool (= call__main_.nB1 call__main_.flby2))
(define-fun .def_518 () Bool (= call__main_.nB0 call__main_.flby))
(define-fun .def_514 () Bool (and call__main_._H0_ call__main_._H1_))
(define-fun .def_515 () Bool (= call__main_.ast .def_514))
(define-fun .def_510 () Bool (= call__main_.ast ast))
(define-fun .def_506 () Bool (= retard1 call__main_.retard1))
(define-fun .def_502 () Bool (= retard0 call__main_.retard0))
(define-fun .def_498 () Bool (= avance1 call__main_.avance1))
(define-fun .def_494 () Bool (= avance0 call__main_.avance0))
(define-fun .def_490 () Bool (= diff1 call__main_.diff1))
(define-fun .def_486 () Bool (= diff0 call__main_.diff0))
(define-fun .def_482 () Bool (= nS call__main_.nS))
(define-fun .def_478 () Bool (= nB1 call__main_.nB1))
(define-fun .def_474 () Bool (= nB0 call__main_.nB0))
(define-fun .def_471 () Bool (= _OK_ flby))
(define-fun .def_475 () Bool (and .def_471 .def_474))
(define-fun .def_479 () Bool (and .def_475 .def_478))
(define-fun .def_483 () Bool (and .def_479 .def_482))
(define-fun .def_487 () Bool (and .def_483 .def_486))
(define-fun .def_491 () Bool (and .def_487 .def_490))
(define-fun .def_495 () Bool (and .def_491 .def_494))
(define-fun .def_499 () Bool (and .def_495 .def_498))
(define-fun .def_503 () Bool (and .def_499 .def_502))
(define-fun .def_507 () Bool (and .def_503 .def_506))
(define-fun .def_511 () Bool (and .def_507 .def_510))
(define-fun .def_516 () Bool (and .def_511 .def_515))
(define-fun .def_519 () Bool (and .def_516 .def_518))
(define-fun .def_522 () Bool (and .def_519 .def_521))
(define-fun .def_525 () Bool (and .def_522 .def_524))
(define-fun .def_528 () Bool (and .def_525 .def_527))
(define-fun .def_531 () Bool (and .def_528 .def_530))
(define-fun .def_534 () Bool (and .def_531 .def_533))
(define-fun .def_537 () Bool (and .def_534 .def_536))
(define-fun .def_540 () Bool (and .def_537 .def_539))
(define-fun .def_543 () Bool (and .def_540 .def_542))
(define-fun .def_546 () Bool (and .def_543 .def_545))
(define-fun .def_549 () Bool (and .def_546 .def_548))
(define-fun .def_552 () Bool (and .def_549 .def_551))
(define-fun .def_556 () Bool (and .def_552 .def_555))
(define-fun .def_559 () Bool (and .def_556 .def_558))
(define-fun .def_563 () Bool (and .def_559 .def_562))
(define-fun .def_572 () Bool (and .def_563 .def_571))
(define-fun .def_575 () Bool (and .def_572 .def_574))
(define-fun .def_578 () Bool (and .def_575 .def_577))
(define-fun .def_586 () Bool (and .def_578 .def_585))
(define-fun .def_589 () Bool (and .def_586 .def_588))
(define-fun .def_592 () Bool (and .def_589 .def_591))
(define-fun .def_596 () Bool (and .def_592 .def_595))
(define-fun .def_619 () Bool (and .def_596 .def_618))
(assert .def_619)
